(set-info :source |printed by MathSAT|)
(declare-fun |.x{1}| () Int)
(declare-fun |.x{525}| () Int)
(declare-fun |.x{2}| () (Array Int (Array Int Int)))
(declare-fun |.x{526}| () (Array Int (Array Int Int)))
(declare-fun |.x{3}| () (Array Int (Array Int Int)))
(declare-fun |.x{527}| () (Array Int (Array Int Int)))
(declare-fun |.x{37}| () (Array Int Int))
(declare-fun |.x{528}| () (Array Int Int))
(declare-fun |.x{5}| () (Array Int Int))
(declare-fun |.x{529}| () (Array Int Int))
(declare-fun |.x{6}| () (Array Int (Array Int Int)))
(declare-fun |.x{530}| () (Array Int (Array Int Int)))
(declare-fun |.x{7}| () (Array Int (Array Int Int)))
(declare-fun |.x{531}| () (Array Int (Array Int Int)))
(declare-fun |.x{41}| () Int)
(declare-fun |.x{532}| () Int)
(declare-fun |.x{9}| () Int)
(declare-fun |.x{533}| () Int)
(declare-fun |.x{10}| () (Array Int Int))
(declare-fun |.x{534}| () (Array Int Int))
(declare-fun |.x{11}| () (Array Int Int))
(declare-fun |.x{535}| () (Array Int Int))
(declare-fun |.x{45}| () Int)
(declare-fun |.x{536}| () Int)
(declare-fun |.x{13}| () Int)
(declare-fun |.x{537}| () Int)
(declare-fun |.x{14}| () (Array Int (Array Int Int)))
(declare-fun |.x{538}| () (Array Int (Array Int Int)))
(declare-fun |.x{15}| () (Array Int (Array Int Int)))
(declare-fun |.x{539}| () (Array Int (Array Int Int)))
(declare-fun |.x{16}| () Int)
(declare-fun |.x{540}| () Int)
(declare-fun |.x{17}| () Int)
(declare-fun |.x{541}| () Int)
(declare-fun |.x{18}| () Int)
(declare-fun |.x{542}| () Int)
(declare-fun |.x{19}| () Int)
(declare-fun |.x{543}| () Int)
(declare-fun |.x{20}| () Int)
(declare-fun |.x{544}| () Int)
(declare-fun |.x{21}| () Int)
(declare-fun |.x{545}| () Int)
(declare-fun |.x{22}| () Int)
(declare-fun |.x{546}| () Int)
(declare-fun |.x{23}| () Int)
(declare-fun |.x{547}| () Int)
(declare-fun |.x{24}| () Int)
(declare-fun |.x{548}| () Int)
(declare-fun |.x{25}| () Int)
(declare-fun |.x{549}| () Int)
(declare-fun |.x{26}| () Int)
(declare-fun |.x{550}| () Int)
(declare-fun |.x{27}| () Int)
(declare-fun |.x{551}| () Int)
(declare-fun |.x{28}| () Int)
(declare-fun |.x{552}| () Int)
(declare-fun |.x{29}| () Int)
(declare-fun |.x{553}| () Int)
(declare-fun |.x{30}| () Int)
(declare-fun |.x{554}| () Int)
(declare-fun |.x{31}| () Int)
(declare-fun |.x{555}| () Int)
(declare-fun |.x{32}| () Int)
(declare-fun |.x{556}| () Int)
(declare-fun |.x{33}| () Bool)
(declare-fun |.x{491}| () Bool)
(declare-fun |.loc{3}| () Bool)
(declare-fun |.loc{5}| () Bool)
(declare-fun |.loc{4}| () Bool)
(declare-fun |.loc{6}| () Bool)
(declare-fun |.x{133}| () (Array Int Int))
(define-fun .def_76 () Bool (! |.loc{4}| :next |.loc{6}|))
(define-fun .def_283 () Bool (not .def_76))
(define-fun .def_74 () Bool (! |.loc{3}| :next |.loc{5}|))
(define-fun .def_93 () Bool (not .def_74))
(define-fun .def_311 () Bool (and .def_93 .def_283))
(define-fun .def_24 () Int (! |.x{9}| :next |.x{533}|))
(define-fun .def_22 () Int (! |.x{41}| :next |.x{532}|))
(define-fun .def_303 () Bool (= .def_22 .def_24))
(define-fun .def_36 () (Array Int (Array Int Int)) (! |.x{15}| :next |.x{539}|))
(define-fun .def_34 () (Array Int (Array Int Int)) (! |.x{14}| :next |.x{538}|))
(define-fun .def_302 () Bool (= .def_34 .def_36))
(define-fun .def_304 () Bool (and .def_302 .def_303))
(define-fun .def_32 () Int (! |.x{13}| :next |.x{537}|))
(define-fun .def_30 () Int (! |.x{45}| :next |.x{536}|))
(define-fun .def_301 () Bool (= .def_30 .def_32))
(define-fun .def_305 () Bool (and .def_301 .def_304))
(define-fun .def_72 () Bool (! |.x{33}| :next |.x{491}|))
(define-fun .def_300 () Bool (not .def_72))
(define-fun .def_306 () Bool (and .def_300 .def_305))
(define-fun .def_12 () (Array Int (Array Int Int)) (! |.x{3}| :next |.x{527}|))
(define-fun .def_10 () (Array Int (Array Int Int)) (! |.x{2}| :next |.x{526}|))
(define-fun .def_299 () Bool (= .def_10 .def_12))
(define-fun .def_307 () Bool (and .def_299 .def_306))
(define-fun .def_28 () (Array Int Int) (! |.x{11}| :next |.x{535}|))
(define-fun .def_26 () (Array Int Int) (! |.x{10}| :next |.x{534}|))
(define-fun .def_298 () Bool (= .def_26 .def_28))
(define-fun .def_308 () Bool (and .def_298 .def_307))
(define-fun .def_20 () (Array Int (Array Int Int)) (! |.x{7}| :next |.x{531}|))
(define-fun .def_18 () (Array Int (Array Int Int)) (! |.x{6}| :next |.x{530}|))
(define-fun .def_297 () Bool (= .def_18 .def_20))
(define-fun .def_309 () Bool (and .def_297 .def_308))
(define-fun .def_16 () (Array Int Int) (! |.x{5}| :next |.x{529}|))
(define-fun .def_14 () (Array Int Int) (! |.x{37}| :next |.x{528}|))
(define-fun .def_296 () Bool (= .def_14 .def_16))
(define-fun .def_310 () Bool (and .def_296 .def_309))
(define-fun .def_312 () Bool (! (and .def_310 .def_311) :init true))
(define-fun .def_293 () Bool (= .def_16 |.x{529}|))
(define-fun .def_291 () Bool (= .def_12 |.x{527}|))
(define-fun .def_8 () Int (! |.x{1}| :next |.x{525}|))
(define-fun .def_289 () Bool (= .def_8 |.x{525}|))
(define-fun .def_287 () Bool (= .def_36 |.x{539}|))
(define-fun .def_285 () Bool (= .def_32 |.x{537}|))
(define-fun .def_281 () Bool (= .def_28 |.x{535}|))
(define-fun .def_279 () Bool (= .def_20 |.x{531}|))
(define-fun .def_278 () Bool (= .def_24 |.x{533}|))
(define-fun .def_280 () Bool (and .def_278 .def_279))
(define-fun .def_282 () Bool (and .def_280 .def_281))
(define-fun .def_284 () Bool (and .def_282 .def_283))
(define-fun .def_286 () Bool (and .def_284 .def_285))
(define-fun .def_288 () Bool (and .def_286 .def_287))
(define-fun .def_290 () Bool (and .def_288 .def_289))
(define-fun .def_292 () Bool (and .def_290 .def_291))
(define-fun .def_294 () Bool (and .def_292 .def_293))
(define-fun .def_274 () Bool (not |.loc{5}|))
(define-fun .def_97 () Bool (= |.x{556}| 4))
(define-fun .def_268 () Bool (not .def_97))
(define-fun .def_269 () Bool (or .def_72 .def_268))
(define-fun .def_196 () (Array Int Int) (store |.x{133}| |.x{541}| 1))
(define-fun .def_197 () (Array Int Int) (store .def_196 |.x{550}| 1))
(define-fun .def_219 () Int (select .def_197 |.x{544}|))
(define-fun .def_220 () Bool (= .def_219 0))
(define-fun .def_215 () Bool (= |.x{544}| 0))
(define-fun .def_216 () Bool (not .def_215))
(define-fun .def_212 () Int (select .def_196 |.x{550}|))
(define-fun .def_213 () Bool (= .def_212 0))
(define-fun .def_209 () Bool (= |.x{542}| 0))
(define-fun .def_104 () Int (+ |.x{548}| 4))
(define-fun .def_205 () (Array Int Int) (select |.x{526}| |.x{544}|))
(define-fun .def_206 () Int (select .def_205 .def_104))
(define-fun .def_207 () Bool (= |.x{555}| .def_206))
(define-fun .def_201 () (Array Int Int) (select |.x{538}| |.x{544}|))
(define-fun .def_202 () Int (select .def_201 .def_104))
(define-fun .def_203 () Bool (= |.x{543}| .def_202))
(define-fun .def_198 () (Array Int Int) (store .def_197 |.x{544}| 1))
(define-fun .def_199 () Bool (= |.x{528}| .def_198))
(define-fun .def_189 () Int (select |.x{133}| |.x{541}|))
(define-fun .def_190 () Bool (= .def_189 0))
(define-fun .def_186 () Bool (= |.x{550}| 0))
(define-fun .def_187 () Bool (not .def_186))
(define-fun .def_164 () Int (+ |.x{543}| 4))
(define-fun .def_181 () (Array Int Int) (select |.x{538}| |.x{555}|))
(define-fun .def_182 () Int (select .def_181 .def_164))
(define-fun .def_183 () Bool (= |.x{551}| .def_182))
(define-fun .def_179 () Bool (= |.x{548}| 0))
(define-fun .def_175 () (Array Int Int) (select |.x{530}| |.x{552}|))
(define-fun .def_176 () Int (select .def_175 |.x{551}|))
(define-fun .def_177 () Bool (= |.x{556}| .def_176))
(define-fun .def_170 () Bool (= |.x{541}| 0))
(define-fun .def_171 () Bool (not .def_170))
(define-fun .def_165 () (Array Int Int) (select |.x{526}| |.x{555}|))
(define-fun .def_166 () Int (select .def_165 .def_164))
(define-fun .def_167 () Bool (= |.x{552}| .def_166))
(define-fun .def_160 () Bool (= |.x{540}| 0))
(define-fun .def_157 () Bool (<= |.x{525}| |.x{550}|))
(define-fun .def_158 () Bool (not .def_157))
(define-fun .def_155 () Bool (<= |.x{525}| |.x{544}|))
(define-fun .def_156 () Bool (not .def_155))
(define-fun .def_159 () Bool (and .def_156 .def_158))
(define-fun .def_161 () Bool (and .def_159 .def_160))
(define-fun .def_114 () (Array Int Int) (select .def_10 |.x{544}|))
(define-fun .def_115 () Int (select .def_114 .def_104))
(define-fun .def_154 () Bool (= |.x{550}| .def_115))
(define-fun .def_162 () Bool (and .def_154 .def_161))
(define-fun .def_105 () (Array Int Int) (select .def_34 |.x{544}|))
(define-fun .def_106 () Int (select .def_105 .def_104))
(define-fun .def_117 () Int (+ .def_106 4))
(define-fun .def_116 () (Array Int Int) (select .def_34 .def_115))
(define-fun .def_118 () Int (select .def_116 .def_117))
(define-fun .def_119 () (Array Int Int) (select .def_10 .def_115))
(define-fun .def_120 () Int (select .def_119 .def_117))
(define-fun .def_148 () (Array Int Int) (select |.x{526}| .def_120))
(define-fun .def_149 () Int (select .def_148 .def_118))
(define-fun .def_150 () (Array Int Int) (select .def_10 .def_120))
(define-fun .def_151 () (Array Int Int) (store .def_150 .def_118 .def_149))
(define-fun .def_152 () (Array Int (Array Int Int)) (store .def_10 .def_120 .def_151))
(define-fun .def_153 () Bool (= |.x{526}| .def_152))
(define-fun .def_163 () Bool (and .def_153 .def_162))
(define-fun .def_168 () Bool (and .def_163 .def_167))
(define-fun .def_146 () Bool (<= |.x{525}| |.x{541}|))
(define-fun .def_147 () Bool (not .def_146))
(define-fun .def_169 () Bool (and .def_147 .def_168))
(define-fun .def_172 () Bool (and .def_169 .def_171))
(define-fun .def_140 () (Array Int Int) (select |.x{538}| .def_120))
(define-fun .def_141 () Int (select .def_140 .def_118))
(define-fun .def_142 () (Array Int Int) (select .def_34 .def_120))
(define-fun .def_143 () (Array Int Int) (store .def_142 .def_118 .def_141))
(define-fun .def_144 () (Array Int (Array Int Int)) (store .def_34 .def_120 .def_143))
(define-fun .def_145 () Bool (= |.x{538}| .def_144))
(define-fun .def_173 () Bool (and .def_145 .def_172))
(define-fun .def_137 () (Array Int Int) (select .def_18 |.x{544}|))
(define-fun .def_138 () Int (select .def_137 |.x{548}|))
(define-fun .def_139 () Bool (= .def_138 1))
(define-fun .def_174 () Bool (and .def_139 .def_173))
(define-fun .def_178 () Bool (and .def_174 .def_177))
(define-fun .def_180 () Bool (and .def_178 .def_179))
(define-fun .def_184 () Bool (and .def_180 .def_183))
(define-fun .def_125 () Int (+ |.x{542}| 4))
(define-fun .def_133 () (Array Int Int) (select .def_34 |.x{550}|))
(define-fun .def_134 () Int (select .def_133 .def_125))
(define-fun .def_135 () Bool (= |.x{540}| .def_134))
(define-fun .def_185 () Bool (and .def_135 .def_184))
(define-fun .def_188 () Bool (and .def_185 .def_187))
(define-fun .def_191 () Bool (and .def_188 .def_190))
(define-fun .def_130 () (Array Int Int) (select .def_18 |.x{541}|))
(define-fun .def_131 () Int (select .def_130 |.x{540}|))
(define-fun .def_132 () Bool (= .def_131 3))
(define-fun .def_192 () Bool (and .def_132 .def_191))
(define-fun .def_126 () (Array Int Int) (select .def_10 |.x{550}|))
(define-fun .def_127 () Int (select .def_126 .def_125))
(define-fun .def_128 () Bool (= |.x{541}| .def_127))
(define-fun .def_193 () Bool (and .def_128 .def_192))
(define-fun .def_121 () (Array Int Int) (select .def_18 .def_120))
(define-fun .def_122 () (Array Int Int) (store .def_121 .def_118 4))
(define-fun .def_123 () (Array Int (Array Int Int)) (store .def_18 .def_120 .def_122))
(define-fun .def_124 () Bool (= |.x{530}| .def_123))
(define-fun .def_194 () Bool (and .def_124 .def_193))
(define-fun .def_109 () (Array Int Int) (store .def_26 |.x{541}| 4))
(define-fun .def_110 () (Array Int Int) (store .def_109 |.x{550}| 8))
(define-fun .def_111 () (Array Int Int) (store .def_110 |.x{544}| 8))
(define-fun .def_112 () Bool (= |.x{534}| .def_111))
(define-fun .def_195 () Bool (and .def_112 .def_194))
(define-fun .def_200 () Bool (and .def_195 .def_199))
(define-fun .def_204 () Bool (and .def_200 .def_203))
(define-fun .def_208 () Bool (and .def_204 .def_207))
(define-fun .def_210 () Bool (and .def_208 .def_209))
(define-fun .def_107 () Bool (= |.x{542}| .def_106))
(define-fun .def_211 () Bool (and .def_107 .def_210))
(define-fun .def_214 () Bool (and .def_211 .def_213))
(define-fun .def_217 () Bool (and .def_214 .def_216))
(define-fun .def_101 () (Array Int Int) (select .def_18 |.x{550}|))
(define-fun .def_102 () Int (select .def_101 |.x{542}|))
(define-fun .def_103 () Bool (= .def_102 2))
(define-fun .def_218 () Bool (and .def_103 .def_217))
(define-fun .def_221 () Bool (and .def_218 .def_220))
(define-fun .def_262 () Bool (or .def_72 .def_221))
(define-fun .def_263 () Bool (and .def_93 .def_262))
(define-fun .def_264 () Bool (and .def_262 .def_263))
(define-fun .def_48 () Int (! |.x{21}| :next |.x{545}|))
(define-fun .def_78 () Bool (= .def_48 |.x{545}|))
(define-fun .def_265 () Bool (and .def_78 .def_264))
(define-fun .def_266 () Bool (and .def_78 .def_265))
(define-fun .def_267 () Bool (and |.x{491}| .def_266))
(define-fun .def_270 () Bool (and .def_267 .def_269))
(define-fun .def_84 () (Array Int Int) (store .def_14 0 0))
(define-fun .def_85 () Bool (= |.x{133}| .def_84))
(define-fun .def_81 () Bool (= |.x{532}| 0))
(define-fun .def_80 () Bool (= |.x{536}| 0))
(define-fun .def_82 () Bool (and .def_80 .def_81))
(define-fun .def_86 () Bool (and .def_82 .def_85))
(define-fun .def_87 () Bool (or .def_72 .def_86))
(define-fun .def_271 () Bool (and .def_87 .def_270))
(define-fun .def_46 () Int (! |.x{20}| :next |.x{544}|))
(define-fun .def_58 () Int (! |.x{26}| :next |.x{550}|))
(define-fun .def_40 () Int (! |.x{17}| :next |.x{541}|))
(define-fun .def_255 () (Array Int Int) (store .def_14 .def_40 0))
(define-fun .def_256 () (Array Int Int) (store .def_255 .def_58 0))
(define-fun .def_257 () (Array Int Int) (store .def_256 .def_46 0))
(define-fun .def_258 () Bool (= |.x{528}| .def_257))
(define-fun .def_254 () Bool (= |.x{547}| 0))
(define-fun .def_259 () Bool (and .def_254 .def_258))
(define-fun .def_260 () Bool (or .def_72 .def_259))
(define-fun .def_251 () Bool (= .def_10 |.x{526}|))
(define-fun .def_249 () Bool (= .def_18 |.x{530}|))
(define-fun .def_247 () Bool (= .def_22 |.x{532}|))
(define-fun .def_245 () Bool (= .def_26 |.x{534}|))
(define-fun .def_243 () Bool (= .def_30 |.x{536}|))
(define-fun .def_241 () Bool (= .def_34 |.x{538}|))
(define-fun .def_50 () Int (! |.x{22}| :next |.x{546}|))
(define-fun .def_239 () Bool (= .def_50 |.x{546}|))
(define-fun .def_56 () Int (! |.x{25}| :next |.x{549}|))
(define-fun .def_237 () Bool (= .def_56 |.x{549}|))
(define-fun .def_64 () Int (! |.x{29}| :next |.x{553}|))
(define-fun .def_235 () Bool (= .def_64 |.x{553}|))
(define-fun .def_66 () Int (! |.x{30}| :next |.x{554}|))
(define-fun .def_233 () Bool (= .def_66 |.x{554}|))
(define-fun .def_230 () Bool (= |.x{545}| |.x{547}|))
(define-fun .def_231 () Bool (or |.x{491}| .def_230))
(define-fun .def_91 () Bool (= .def_72 |.x{491}|))
(define-fun .def_232 () Bool (and .def_91 .def_231))
(define-fun .def_234 () Bool (and .def_232 .def_233))
(define-fun .def_236 () Bool (and .def_234 .def_235))
(define-fun .def_238 () Bool (and .def_236 .def_237))
(define-fun .def_240 () Bool (and .def_238 .def_239))
(define-fun .def_242 () Bool (and .def_240 .def_241))
(define-fun .def_244 () Bool (and .def_242 .def_243))
(define-fun .def_246 () Bool (and .def_244 .def_245))
(define-fun .def_248 () Bool (and .def_246 .def_247))
(define-fun .def_250 () Bool (and .def_248 .def_249))
(define-fun .def_252 () Bool (and .def_250 .def_251))
(define-fun .def_253 () Bool (and .def_74 .def_252))
(define-fun .def_261 () Bool (and .def_253 .def_260))
(define-fun .def_272 () Bool (or .def_261 .def_271))
(define-fun .def_273 () Bool (and |.loc{6}| .def_272))
(define-fun .def_275 () Bool (and .def_273 .def_274))
(define-fun .def_224 () Bool (and .def_72 .def_87))
(define-fun .def_225 () Bool (and .def_78 .def_224))
(define-fun .def_89 () Bool (not |.loc{6}|))
(define-fun .def_226 () Bool (and .def_89 .def_225))
(define-fun .def_227 () Bool (and .def_93 .def_226))
(define-fun .def_228 () Bool (and |.x{491}| .def_227))
(define-fun .def_229 () Bool (and |.loc{5}| .def_228))
(define-fun .def_276 () Bool (or .def_229 .def_275))
(define-fun .def_222 () Bool (or |.x{491}| .def_221))
(define-fun .def_98 () Bool (or |.x{491}| .def_97))
(define-fun .def_88 () Bool (and .def_78 .def_87))
(define-fun .def_90 () Bool (and .def_88 .def_89))
(define-fun .def_92 () Bool (and .def_90 .def_91))
(define-fun .def_94 () Bool (and .def_92 .def_93))
(define-fun .def_95 () Bool (and |.loc{5}| .def_94))
(define-fun .def_99 () Bool (and .def_95 .def_98))
(define-fun .def_223 () Bool (and .def_99 .def_222))
(define-fun .def_277 () Bool (or .def_223 .def_276))
(define-fun .def_295 () Bool (! (and .def_277 .def_294) :trans true))
(define-fun .def_38 () Int (! |.x{16}| :next |.x{540}|))
(define-fun .def_42 () Int (! |.x{18}| :next |.x{542}|))
(define-fun .def_44 () Int (! |.x{19}| :next |.x{543}|))
(define-fun .def_52 () Int (! |.x{23}| :next |.x{547}|))
(define-fun .def_54 () Int (! |.x{24}| :next |.x{548}|))
(define-fun .def_60 () Int (! |.x{27}| :next |.x{551}|))
(define-fun .def_62 () Int (! |.x{28}| :next |.x{552}|))
(define-fun .def_68 () Int (! |.x{31}| :next |.x{555}|))
(define-fun .def_70 () Int (! |.x{32}| :next |.x{556}|))
(define-fun .def_313 () Bool (and .def_76 .def_93))
(define-fun .def_314 () Bool (and .def_72 .def_313))
(define-fun .def_315 () Bool (! (not .def_314) :invar-property 0))
(assert true)
